
#(C) 2025 by FIZ Karlsruhe - Leibniz Institute for Information Infrastructure.  All rights reserved.
data_70546-ICSD
_database_code_ICSD 70546
_audit_creation_date 2023-08-01
_chemical_name_common 'Silver niobium trioxide'
_chemical_formula_structural 'Ag Nb O3'
_chemical_formula_sum 'Ag1 Nb1 O3'
_chemical_name_structure_type NaNbO3(Pbcm)
_exptl_crystal_density_diffrn 6.83
_diffrn_ambient_temperature 298.15
_citation_title

;
Enhanced energy storage performance in reaction-sintered AgNbO$_3$
antiferroelectric ceramics
;
loop_
_citation_id
_citation_journal_full
_citation_year
_citation_journal_volume
_citation_page_first
_citation_page_last
_citation_journal_id_ASTM
primary 'Dalton Transactions' 2023 52 4462 4474 DTARAF
loop_
_citation_author_citation_id
_citation_author_name
primary 'Moradi, Parastoo'
primary 'Taheri-Nassaj, Ehsan'
primary 'Yourdkhani, Amin'
primary 'Mykhailovych, Vasyl'
primary 'Diaconu, Andrei'
primary 'Rotaru, Aurelian'
_cell_length_a 5.538(3)
_cell_length_b 5.593(3)
_cell_length_c 15.620(9)
_cell_angle_alpha 90.
_cell_angle_beta 90.
_cell_angle_gamma 90.
_cell_volume 483.81
_cell_formula_units_Z 8
_space_group_name_H-M_alt 'P b c m'
_space_group_IT_number 57
loop_
_space_group_symop_id
_space_group_symop_operation_xyz
1 'x, -y+1/2, z+1/2'
2 '-x, y+1/2, z'
3 'x, y, -z+1/2'
4 '-x, -y, -z'
5 '-x, y+1/2, -z+1/2'
6 'x, -y+1/2, -z'
7 '-x, -y, z+1/2'
8 'x, y, z'
loop_
_atom_type_symbol
_atom_type_oxidation_number
Ag1+ 1
Nb5+ 5
O2- -2
loop_
_atom_site_label
_atom_site_type_symbol
_atom_site_symmetry_multiplicity
_atom_site_Wyckoff_symbol
_atom_site_fract_x
_atom_site_fract_y
_atom_site_fract_z
_atom_site_U_iso_or_equiv
_atom_site_occupancy
Ag1 Ag1+ 4 d 0.749237 0.248225 0.75 0.01855 1.
Ag2 Ag1+ 4 c 0.748537 0.25 0.5 0.01855 1.
Nb1 Nb5+ 8 e 0.751108 0.746858 0.62411 0.01628 1.
O1 O2- 4 d 0.697855 0.751579 0.75 0.00614 1.
O2 O2- 4 c 0.808355 0.75 0.5 0.00614 1.
O3 O2- 8 e 0.465955 0.523079 0.613041 0.00614 1.
O4 O2- 8 e 0.964255 0.459379 0.640741 0.00614 1.
#End of TTdata_70546-ICSD