
#(C) 2025 by FIZ Karlsruhe - Leibniz Institute for Information Infrastructure.  All rights reserved.
data_161704-ICSD
_database_code_ICSD 161704
_audit_creation_date 2009-02-01
_audit_update_record 2013-08-01
_chemical_name_common 'Lead hafnate - antiferroelectric'
_chemical_formula_structural 'Pb (Hf O3)'
_chemical_formula_sum 'Hf1 O3 Pb1'
_chemical_name_structure_type PbZrO3
_exptl_crystal_density_diffrn 10.25
_diffrn_ambient_temperature 296.
_citation_title

;
Analysis of structures and order parameters in antiferroelectric Pb Hf O3
using neutron diffraction
;
loop_
_citation_id
_citation_journal_full
_citation_year
_citation_journal_volume
_citation_page_first
_citation_page_last
_citation_journal_id_ASTM
primary 'Journal of the Physical Society of Japan' 2008 77 1 7 JUPSAU
loop_
_citation_author_citation_id
_citation_author_name
primary 'Fujishita, H.'
primary 'Ogawaguchi, A.'
primary 'Katano, S.'
_cell_length_a 5.8490(5)
_cell_length_b 11.7148(10)
_cell_length_c 8.1992(7)
_cell_angle_alpha 90.
_cell_angle_beta 90.
_cell_angle_gamma 90.
_cell_volume 561.81
_cell_formula_units_Z 8
_space_group_name_H-M_alt 'P b a m'
_space_group_IT_number 55
loop_
_space_group_symop_id
_space_group_symop_operation_xyz
1 'x+1/2, -y+1/2, z'
2 '-x+1/2, y+1/2, z'
3 'x, y, -z'
4 '-x, -y, -z'
5 '-x+1/2, y+1/2, -z'
6 'x+1/2, -y+1/2, -z'
7 '-x, -y, z'
8 'x, y, z'
loop_
_atom_type_symbol
_atom_type_oxidation_number
Pb2+ 2
Hf4+ 4
O2- -2
loop_
_atom_site_label
_atom_site_type_symbol
_atom_site_symmetry_multiplicity
_atom_site_Wyckoff_symbol
_atom_site_fract_x
_atom_site_fract_y
_atom_site_fract_z
_atom_site_U_iso_or_equiv
_atom_site_occupancy
Pb1 Pb2+ 4 g 0.7157(12) 0.1303(5) 0 0.017(2) 1.
Pb2 Pb2+ 4 h 0.7136(13) 0.1247(5) 0.5 0.020(2) 1.
Hf1 Hf4+ 8 i 0.2449(4) 0.1244(7) 0.2512(14) 0.0041(5) 1.
O1 O2- 4 g 0.2859(14) 0.0982(12) 0 0.013 1.
O2 O2- 4 h 0.2681(14) 0.1532(12) 0.5 0.013 1.
O3 O2- 8 i 0.0229(10) 0.2568(4) 0.2222(13) 0.022 1.
O4 O2- 4 f 0 0.5 0.2880(10) 0.011 1.
O5 O2- 4 e 0 0 0.2692(15) 0.011 1.
loop_
_atom_site_aniso_label
_atom_site_aniso_type_symbol
_atom_site_aniso_U_11
_atom_site_aniso_U_22
_atom_site_aniso_U_33
_atom_site_aniso_U_12
_atom_site_aniso_U_13
_atom_site_aniso_U_23
O1 O2- 0.0184(11) 0.0184(11) 0.0015(10) 0. 0. 0.
O2 O2- 0.0184(11) 0.0184(11) 0.0015(10) 0. 0. 0.
O3 O2- 0.018(2) 0.018(2) 0.029(3) 0.012 0. 0.
O4 O2- 0.0083(20) 0.0083(20) 0.017(3) -0.008 0. 0.
O5 O2- 0.0083(20) 0.0083(20) 0.017(3) -0.008 0. 0.
#End of TTdata_161704-ICSD