
#(C) 2025 by FIZ Karlsruhe - Leibniz Institute for Information Infrastructure.  All rights reserved.
data_59403-ICSD
_database_code_ICSD 59403
_audit_creation_date 1999-06-02
_audit_update_record 2003-10-01
_chemical_name_common 'Lead zirconate'
_chemical_formula_structural 'Pb (Zr O3)'
_chemical_formula_sum 'O3 Pb1 Zr1'
_chemical_name_structure_type PbZrO3
_exptl_crystal_density_diffrn 8.07
_diffrn_ambient_temperature 295.
_citation_title
'Atomic structure of Pb Zr O3 determined by pulsed neutron diffraction'
loop_
_citation_id
_citation_journal_full
_citation_year
_citation_journal_volume
_citation_page_first
_citation_page_last
_citation_journal_id_ASTM
primary 'Acta Crystallographica, Section B: Structural Science' 1998 54 750 765
ASBSDK
loop_
_citation_author_citation_id
_citation_author_name
primary 'Teslic, S.'
primary 'Egami, T.'
_cell_length_a 5.8819(4)
_cell_length_b 11.7820(6)
_cell_length_c 8.2294(6)
_cell_angle_alpha 90.
_cell_angle_beta 90.
_cell_angle_gamma 90.
_cell_volume 570.3
_cell_formula_units_Z 8
_space_group_name_H-M_alt 'P b a m'
_space_group_IT_number 55
loop_
_space_group_symop_id
_space_group_symop_operation_xyz
1 'x+1/2, -y+1/2, z'
2 '-x+1/2, y+1/2, z'
3 'x, y, -z'
4 '-x, -y, -z'
5 '-x+1/2, y+1/2, -z'
6 'x+1/2, -y+1/2, -z'
7 '-x, -y, z'
8 'x, y, z'
loop_
_atom_type_symbol
_atom_type_oxidation_number
Pb2+ 2
Zr4+ 4
O2- -2
loop_
_atom_site_label
_atom_site_type_symbol
_atom_site_symmetry_multiplicity
_atom_site_Wyckoff_symbol
_atom_site_fract_x
_atom_site_fract_y
_atom_site_fract_z
_atom_site_B_iso_or_equiv
_atom_site_occupancy
Pb1 Pb2+ 4 g 0.704(2) 0.124(2) 0 1.15(3) 1.
Pb2 Pb2+ 4 h 0.709(2) 0.128 0.5 1.15(3) 1.
Zr1 Zr4+ 8 i 0.240(2) 0.126(1) 0.25 0.17(3) 0.5
Zr2 Zr4+ 8 i 0.24 0.126 0.75 0.17(3) 0.5
O1 O2- 4 g 0.272(2) 0.148(1) 0 0.34(4) 1.
O2 O2- 4 h 0.295(2) 0.088(1) 0.5 0.34(4) 1.
O3 O2- 8 i 0.03 0.262(2) 0.275(3) 0.80(3) 0.5
O4 O2- 8 i 0.03 0.262 0.725 0.80(3) 0.5
O5 O2- 4 f 0 0.5 0.202(2) 0.67(3) 0.5
O6 O2- 4 f 0 0.5 0.798 0.67(3) 0.5
O7 O2- 4 e 0 0 0.230(3) 0.90(2) 0.5
O8 O2- 4 e 0 0 0.77 0.90(2) 0.5
#End of TTdata_59403-ICSD