
#(C) 2025 by FIZ Karlsruhe - Leibniz Institute for Information Infrastructure.  All rights reserved.
data_135659-ICSD
_database_code_ICSD 135659
_audit_creation_date 2022-02-01
_chemical_name_common 'alpha Bismuth(III) niobium(V) oxide'
_chemical_formula_structural 'Bi Nb O4'
_chemical_formula_sum 'Bi1 Nb1 O4'
_chemical_name_structure_type WSnO4(oP24)
_exptl_crystal_density_diffrn 7.33
_diffrn_ambient_temperature 293.
_citation_title 'Structural evolution in BiNbO$_4$'
loop_
_citation_id
_citation_journal_full
_citation_year
_citation_journal_volume
_citation_page_first
_citation_page_last
_citation_journal_id_ASTM
primary 'Inorganic Chemistry' 2021 60 8507 8518 INOCAJ
loop_
_citation_author_citation_id
_citation_author_name
primary 'Yu, Chuying'
primary 'Viola, Giuseppe'
primary 'Zhang, Dou'
primary 'Stroscio, Zaira'
primary 'Hu, Zimeng'
primary 'Eskilla, Venkata Ramana'
primary 'Grasso, Salvatore'
primary 'Wilson, Rory M.'
primary 'Zhou, Kechao'
primary 'Bonini, Nicola'
primary 'Fortes, A. Dominic'
primary 'Abrahams, Isaac'
primary 'Yan, Haixue'
_cell_length_a 5.680586(24)
_cell_length_b 11.71356(5)
_cell_length_c 4.983334(21)
_cell_angle_alpha 90.
_cell_angle_beta 90.
_cell_angle_gamma 90.
_cell_volume 331.59
_cell_formula_units_Z 4
_space_group_name_H-M_alt 'P n n a'
_space_group_IT_number 52
loop_
_space_group_symop_id
_space_group_symop_operation_xyz
1 'x+1/2, -y+1/2, z+1/2'
2 '-x, y+1/2, z+1/2'
3 'x+1/2, y, -z'
4 '-x, -y, -z'
5 '-x+1/2, y+1/2, -z+1/2'
6 'x, -y+1/2, -z+1/2'
7 '-x+1/2, -y, z'
8 'x, y, z'
loop_
_atom_type_symbol
_atom_type_oxidation_number
Bi3+ 3
Nb5+ 5
O2- -2
loop_
_atom_site_label
_atom_site_type_symbol
_atom_site_symmetry_multiplicity
_atom_site_Wyckoff_symbol
_atom_site_fract_x
_atom_site_fract_y
_atom_site_fract_z
_atom_site_U_iso_or_equiv
_atom_site_occupancy
Bi1 Bi3+ 4 c 0.25 0.5 0.78100(13) 0.01257 1.
Nb1 Nb5+ 4 d 0.34593(17) 0.25 0.25 0.00925 1.
O1 O2- 8 e 0.13972(23) 0.30549(12) 0.50393(28) 0.01514 1.
O2 O2- 8 e 0.41557(22) 0.09780(12) 0.41427(24) 0.0144 1.
loop_
_atom_site_aniso_label
_atom_site_aniso_type_symbol
_atom_site_aniso_U_11
_atom_site_aniso_U_22
_atom_site_aniso_U_33
_atom_site_aniso_U_12
_atom_site_aniso_U_13
_atom_site_aniso_U_23
Bi1 Bi3+ 0.0125(5) 0.0150(5) 0.0101(5) 0.0014(4) 0. 0.
Nb1 Nb5+ 0.0107(7) 0.0096(7) 0.0074(7) 0. 0. -0.0014(6)
O1 O2- 0.0136(7) 0.0157(7) 0.0161(7) -0.0010(6) 0.0038(6) -0.0028(6)
O2 O2- 0.0123(7) 0.0116(7) 0.0193(8) 0.0008(6) 0.0024(6) 0.0041(5)
#End of TTdata_135659-ICSD